Test: fpga12_8_sat.cnf
Options: vanilla
WARNING: for repeatability, setting FPU to use double precision
============================[ Problem Statistics ]=============================
|                                                                             |
|  Number of symmetries:           24                                         |
|  Number of invertingSyms:         0                                         |
|  Number of variables:           144                                         |
|  Number of clauses:             560                                         |
|  Parse time:                   0.00 s                                       |
|                                                                             |
============================[ Search Statistics ]==============================
| Conflicts |          ORIGINAL         |          LEARNT          | Progress |
|           |    Vars  Clauses Literals |    Limit  Clauses Lit/Cl |          |
===============================================================================
|       100 |     144      560     1488 |      205      156     37 |  0.005 % |
===============================================================================
restarts              : 3
conflicts             : 214            (53500 /sec)
symconflicts          : 50             (12500 /sec)
decisions             : 472            (0.00 % random) (118000 /sec)
propagations          : 3656           (914000 /sec)
sympropagations       : 296            (74000 /sec)
conflict literals     : 5614           (2.48 % deleted)
literals     : 5614           (2.48 % deleted)

HEURISTIC USAGES
random                : 0           
activity w/ lookahead : 0           
activity no lookahead : 0           
original sp           : 471         
sym count             : 0           

Memory used           : 5.00 MB
CPU time              : 0.004 s

SATISFIABLE
